BAYES
256
2 2 2 2 2 2 2 2 2 2 2 2 2 2 2 2 2 2 2 2 2 2 2 2 2 2 2 2 2 2 2 2 2 2 2 2 2 2 2 2 2 2 2 2 2 2 2 2 2 2 2 2 2 2 2 2 2 2 2 2 2 2 2 2 2 2 2 2 2 2 2 2 2 2 2 2 2 2 2 2 2 2 2 2 2 2 2 2 2 2 2 2 2 2 2 2 2 2 2 2 2 2 2 2 2 2 2 2 2 2 2 2 2 2 2 2 2 2 2 2 2 2 2 2 2 2 2 2 2 2 2 2 2 2 2 2 2 2 2 2 2 2 2 2 2 2 2 2 2 2 2 2 2 2 2 2 2 2 2 2 2 2 2 2 2 2 2 2 2 2 2 2 2 2 2 2 2 2 2 2 2 2 2 2 2 2 2 2 2 2 2 2 2 2 2 2 2 2 2 2 2 2 2 2 2 2 2 2 2 2 2 2 2 2 2 2 2 2 2 2 2 2 2 2 2 2 2 2 2 2 2 2 2 2 2 2 2 2 2 2 2 2 2 2 2 2 2 2 2 2 2 2 2 2 2 2
256
1 0
2 0 1
2 1 2
2 2 3
2 3 4
2 4 5
2 5 6
2 6 7
2 7 8
2 8 9
2 9 10
2 10 11
2 11 12
2 12 13
2 13 14
2 14 15
2 0 16
3 1 16 17
3 2 17 18
3 3 18 19
3 4 19 20
3 5 20 21
3 6 21 22
3 7 22 23
3 8 23 24
3 9 24 25
3 10 25 26
3 11 26 27
3 12 27 28
3 13 28 29
3 14 29 30
3 15 30 31
2 16 32
3 17 32 33
3 18 33 34
3 19 34 35
3 20 35 36
3 21 36 37
3 22 37 38
3 23 38 39
3 24 39 40
3 25 40 41
3 26 41 42
3 27 42 43
3 28 43 44
3 29 44 45
3 30 45 46
3 31 46 47
2 32 48
3 33 48 49
3 34 49 50
3 35 50 51
3 36 51 52
3 37 52 53
3 38 53 54
3 39 54 55
3 40 55 56
3 41 56 57
3 42 57 58
3 43 58 59
3 44 59 60
3 45 60 61
3 46 61 62
3 47 62 63
2 48 64
3 49 64 65
3 50 65 66
3 51 66 67
3 52 67 68
3 53 68 69
3 54 69 70
3 55 70 71
3 56 71 72
3 57 72 73
3 58 73 74
3 59 74 75
3 60 75 76
3 61 76 77
3 62 77 78
3 63 78 79
2 64 80
3 65 80 81
3 66 81 82
3 67 82 83
3 68 83 84
3 69 84 85
3 70 85 86
3 71 86 87
3 72 87 88
3 73 88 89
3 74 89 90
3 75 90 91
3 76 91 92
3 77 92 93
3 78 93 94
3 79 94 95
2 80 96
3 81 96 97
3 82 97 98
3 83 98 99
3 84 99 100
3 85 100 101
3 86 101 102
3 87 102 103
3 88 103 104
3 89 104 105
3 90 105 106
3 91 106 107
3 92 107 108
3 93 108 109
3 94 109 110
3 95 110 111
2 96 112
3 97 112 113
3 98 113 114
3 99 114 115
3 100 115 116
3 101 116 117
3 102 117 118
3 103 118 119
3 104 119 120
3 105 120 121
3 106 121 122
3 107 122 123
3 108 123 124
3 109 124 125
3 110 125 126
3 111 126 127
2 112 128
3 113 128 129
3 114 129 130
3 115 130 131
3 116 131 132
3 117 132 133
3 118 133 134
3 119 134 135
3 120 135 136
3 121 136 137
3 122 137 138
3 123 138 139
3 124 139 140
3 125 140 141
3 126 141 142
3 127 142 143
2 128 144
3 129 144 145
3 130 145 146
3 131 146 147
3 132 147 148
3 133 148 149
3 134 149 150
3 135 150 151
3 136 151 152
3 137 152 153
3 138 153 154
3 139 154 155
3 140 155 156
3 141 156 157
3 142 157 158
3 143 158 159
2 144 160
3 145 160 161
3 146 161 162
3 147 162 163
3 148 163 164
3 149 164 165
3 150 165 166
3 151 166 167
3 152 167 168
3 153 168 169
3 154 169 170
3 155 170 171
3 156 171 172
3 157 172 173
3 158 173 174
3 159 174 175
2 160 176
3 161 176 177
3 162 177 178
3 163 178 179
3 164 179 180
3 165 180 181
3 166 181 182
3 167 182 183
3 168 183 184
3 169 184 185
3 170 185 186
3 171 186 187
3 172 187 188
3 173 188 189
3 174 189 190
3 175 190 191
2 176 192
3 177 192 193
3 178 193 194
3 179 194 195
3 180 195 196
3 181 196 197
3 182 197 198
3 183 198 199
3 184 199 200
3 185 200 201
3 186 201 202
3 187 202 203
3 188 203 204
3 189 204 205
3 190 205 206
3 191 206 207
2 192 208
3 193 208 209
3 194 209 210
3 195 210 211
3 196 211 212
3 197 212 213
3 198 213 214
3 199 214 215
3 200 215 216
3 201 216 217
3 202 217 218
3 203 218 219
3 204 219 220
3 205 220 221
3 206 221 222
3 207 222 223
2 208 224
3 209 224 225
3 210 225 226
3 211 226 227
3 212 227 228
3 213 228 229
3 214 229 230
3 215 230 231
3 216 231 232
3 217 232 233
3 218 233 234
3 219 234 235
3 220 235 236
3 221 236 237
3 222 237 238
3 223 238 239
2 224 240
3 225 240 241
3 226 241 242
3 227 242 243
3 228 243 244
3 229 244 245
3 230 245 246
3 231 246 247
3 232 247 248
3 233 248 249
3 234 249 250
3 235 250 251
3 236 251 252
3 237 252 253
3 238 253 254
3 239 254 255

2
0.403158 0.596842
4
0.873808 0.126192 0.639332 0.360668
4
0.0 1.0 1.0 0.0
4
0.0 1.0 1.0 0.0
4
0.0 1.0 1.0 0.0
4
0.814339 0.185661 0.266364 0.733636
4
0.28338 0.71662 0.51379 0.48621
4
0.14061 0.85939 0.710085 0.289915
4
0.851104 0.148896 0.020914 0.979086
4
0.688363 0.311637 0.794075 0.205925
4
0.580945 0.419055 0.343207 0.656793
4
0.667894 0.332106 0.973498 0.0265022
4
0.0 1.0 1.0 0.0
4
0.826057 0.173943 0.821364 0.178636
4
0.96665 0.0333505 0.798059 0.201941
4
0.0 1.0 1.0 0.0
4
0.0 1.0 1.0 0.0
8
0.994411 0.00558907 0.139351 0.860649 0.507603 0.492397 0.794904 0.205096
8
1.0 0.0 0.0 1.0 1.0 0.0 1.0 0.0
8
0.0 1.0 1.0 0.0 0.0 1.0 1.0 0.0
8
0.0 1.0 0.0 1.0 0.0 1.0 1.0 0.0
8
0.0 1.0 1.0 0.0 1.0 0.0 0.0 1.0
8
0.056794 0.943206 0.935577 0.0644227 0.486572 0.513428 0.443157 0.556843
8
0.480385 0.519615 0.437568 0.562432 0.930899 0.0691006 0.987988 0.0120115
8
1.0 0.0 1.0 0.0 1.0 0.0 0.0 1.0
8
1.0 0.0 0.0 1.0 1.0 0.0 1.0 0.0
8
0.852838 0.147162 0.198151 0.801849 0.629994 0.370006 0.202219 0.797781
8
1.0 0.0 1.0 0.0 0.0 1.0 0.0 1.0
8
0.0 1.0 1.0 0.0 0.0 1.0 0.0 1.0
8
0.0199772 0.980023 0.683117 0.316883 0.26362 0.73638 0.950877 0.0491235
8
0.496091 0.503909 0.161737 0.838263 0.876782 0.123218 0.46942 0.53058
8
0.32106 0.67894 0.89176 0.10824 0.665015 0.334985 0.798015 0.201985
4
1.0 0.0 0.0 1.0
8
0.508372 0.491628 0.856735 0.143265 0.853073 0.146927 0.672938 0.327062
8
0.251978 0.748022 0.629976 0.370024 0.2502 0.7498 0.54483 0.45517
8
1.0 0.0 0.0 1.0 0.0 1.0 1.0 0.0
8
0.231985 0.768015 0.722765 0.277235 0.744113 0.255887 0.903091 0.0969088
8
1.0 0.0 1.0 0.0 1.0 0.0 0.0 1.0
8
0.0 1.0 1.0 0.0 1.0 0.0 0.0 1.0
8
1.0 0.0 0.0 1.0 1.0 0.0 1.0 0.0
8
0.0 1.0 1.0 0.0 1.0 0.0 1.0 0.0
8
0.972942 0.0270576 0.596547 0.403453 0.424542 0.575458 0.766179 0.233821
8
0.147307 0.852693 0.510292 0.489708 0.731624 0.268376 0.366163 0.633837
8
0.0 1.0 1.0 0.0 1.0 0.0 1.0 0.0
8
0.900181 0.099819 0.51138 0.48862 0.524733 0.475267 0.20145 0.79855
8
1.0 0.0 0.0 1.0 1.0 0.0 0.0 1.0
8
0.0 1.0 1.0 0.0 1.0 0.0 0.0 1.0
8
0.739258 0.260742 0.291536 0.708464 0.340699 0.659301 0.1638 0.8362
4
0.0 1.0 1.0 0.0
8
0.0 1.0 1.0 0.0 1.0 0.0 1.0 0.0
8
1.0 0.0 0.0 1.0 0.0 1.0 0.0 1.0
8
0.536163 0.463837 0.890918 0.109082 0.911432 0.0885681 0.597346 0.402654
8
0.270886 0.729114 0.0614025 0.938598 0.809209 0.190791 0.712443 0.287557
8
1.0 0.0 1.0 0.0 0.0 1.0 0.0 1.0
8
0.0 1.0 0.0 1.0 1.0 0.0 0.0 1.0
8
0.700469 0.299531 0.416162 0.583838 0.660618 0.339382 0.377739 0.622261
8
1.0 0.0 1.0 0.0 1.0 0.0 0.0 1.0
8
0.633917 0.366083 0.366552 0.633448 0.831525 0.168475 0.231263 0.768737
8
0.0 1.0 1.0 0.0 1.0 0.0 1.0 0.0
8
1.0 0.0 0.0 1.0 0.0 1.0 0.0 1.0
8
0.336086 0.663914 0.916079 0.0839209 0.610482 0.389518 0.0958485 0.904151
8
0.0266442 0.973356 0.756466 0.243534 0.994286 0.00571376 0.426954 0.573046
8
0.103734 0.896266 0.637065 0.362935 0.927191 0.0728094 0.579368 0.420632
8
0.561108 0.438892 0.945919 0.0540806 0.388682 0.611318 0.792371 0.207629
4
0.0 1.0 1.0 0.0
8
1.0 0.0 1.0 0.0 0.0 1.0 1.0 0.0
8
0.529899 0.470101 0.35807 0.64193 0.13382 0.86618 0.292224 0.707776
8
0.0498991 0.950101 0.902706 0.0972936 0.790004 0.209996 0.666447 0.333553
8
0.546471 0.453529 0.660733 0.339267 0.356305 0.643695 0.375907 0.624093
8
0.993369 0.00663054 0.303098 0.696902 0.343835 0.656165 0.550527 0.449473
8
0.289755 0.710245 0.93921 0.0607904 0.656577 0.343423 0.416506 0.583494
8
0.0 1.0 1.0 0.0 0.0 1.0 0.0 1.0
8
1.0 0.0 0.0 1.0 1.0 0.0 0.0 1.0
8
0.0 1.0 1.0 0.0 1.0 0.0 1.0 0.0
8
1.0 0.0 0.0 1.0 0.0 1.0 0.0 1.0
8
0.303483 0.696517 0.21352 0.78648 0.962552 0.0374483 0.85401 0.14599
8
0.0 1.0 1.0 0.0 0.0 1.0 0.0 1.0
8
0.0 1.0 1.0 0.0 1.0 0.0 0.0 1.0
8
0.0 1.0 0.0 1.0 1.0 0.0 0.0 1.0
8
0.0498464 0.950154 0.307361 0.692639 0.751285 0.248715 0.0378901 0.96211
4
0.705094 0.294906 0.572405 0.427595
8
0.0 1.0 1.0 0.0 0.0 1.0 0.0 1.0
8
0.172701 0.827299 0.774072 0.225928 0.1887 0.8113 0.965921 0.0340785
8
0.857513 0.142487 0.189444 0.810556 0.984293 0.0157068 0.0596234 0.940377
8
1.0 0.0 0.0 1.0 1.0 0.0 1.0 0.0
8
1.0 0.0 0.0 1.0 1.0 0.0 0.0 1.0
8
0.347091 0.652909 0.0408641 0.959136 0.548118 0.451882 0.919496 0.0805044
8
1.0 0.0 1.0 0.0 0.0 1.0 1.0 0.0
8
0.0 1.0 1.0 0.0 1.0 0.0 1.0 0.0
8
0.0 1.0 1.0 0.0 0.0 1.0 1.0 0.0
8
1.0 0.0 0.0 1.0 0.0 1.0 1.0 0.0
8
0.0 1.0 0.0 1.0 1.0 0.0 1.0 0.0
8
0.424927 0.575073 0.735257 0.264743 0.625111 0.374889 0.973045 0.0269553
8
0.0211014 0.978899 0.53637 0.46363 0.0570745 0.942925 0.390934 0.609066
8
1.0 0.0 1.0 0.0 1.0 0.0 0.0 1.0
8
1.0 0.0 0.0 1.0 0.0 1.0 1.0 0.0
4
0.95659 0.0434101 0.0631262 0.936874
8
0.7762 0.2238 0.874759 0.125241 0.390423 0.609577 0.855165 0.144835
8
0.972326 0.0276745 0.243331 0.756669 0.503267 0.496733 0.397252 0.602748
8
0.128378 0.871622 0.370297 0.629703 0.63334 0.36666 0.149479 0.850521
8
0.690415 0.309585 0.540413 0.459587 0.325055 0.674945 0.846158 0.153842
8
1.0 0.0 0.0 1.0 0.0 1.0 0.0 1.0
8
0.0 1.0 1.0 0.0 1.0 0.0 1.0 0.0
8
0.0 1.0 1.0 0.0 1.0 0.0 1.0 0.0
8
0.852638 0.147362 0.322262 0.677738 0.805474 0.194526 0.355904 0.644096
8
0.784062 0.215938 0.484282 0.515718 0.0898108 0.910189 0.417402 0.582598
8
0.996478 0.00352182 0.107817 0.892183 0.174175 0.825825 0.321533 0.678467
8
0.411748 0.588252 0.119693 0.880307 0.828616 0.171384 0.841409 0.158591
8
1.0 0.0 1.0 0.0 0.0 1.0 1.0 0.0
8
0.466189 0.533811 0.131625 0.868375 0.453352 0.546648 0.399808 0.600192
8
0.0 1.0 1.0 0.0 1.0 0.0 1.0 0.0
8
0.523336 0.476664 0.605029 0.394971 0.0926322 0.907368 0.613147 0.386853
4
0.0 1.0 1.0 0.0
8
0.130248 0.869752 0.900569 0.0994314 0.931158 0.0688419 0.0842223 0.915778
8
1.0 0.0 1.0 0.0 1.0 0.0 0.0 1.0
8
0.0 1.0 0.0 1.0 0.0 1.0 1.0 0.0
8
1.0 0.0 0.0 1.0 1.0 0.0 0.0 1.0
8
0.0 1.0 1.0 0.0 0.0 1.0 0.0 1.0
8
1.0 0.0 0.0 1.0 1.0 0.0 1.0 0.0
8
1.0 0.0 0.0 1.0 1.0 0.0 0.0 1.0
8
0.342934 0.657066 0.760279 0.239721 0.782207 0.217793 0.805382 0.194618
8
0.751529 0.248471 0.67516 0.32484 0.983785 0.0162152 0.467225 0.532775
8
0.0 1.0 0.0 1.0 1.0 0.0 0.0 1.0
8
0.735121 0.264879 0.739028 0.260972 0.826325 0.173675 0.331691 0.668309
8
0.436864 0.563136 0.0208928 0.979107 0.628481 0.371519 0.0698348 0.930165
8
1.0 0.0 1.0 0.0 0.0 1.0 0.0 1.0
8
0.381134 0.618866 0.624425 0.375575 0.440774 0.559226 0.163341 0.836659
8
1.0 0.0 1.0 0.0 0.0 1.0 0.0 1.0
4
0.0 1.0 1.0 0.0
8
0.0183683 0.981632 0.862995 0.137005 0.647965 0.352035 0.839183 0.160817
8
0.386993 0.613007 0.665508 0.334492 0.929807 0.0701931 0.264174 0.735826
8
0.0 1.0 0.0 1.0 0.0 1.0 1.0 0.0
8
0.0 1.0 1.0 0.0 1.0 0.0 0.0 1.0
8
0.126528 0.873472 0.684316 0.315684 0.217785 0.782215 0.353278 0.646722
8
0.322752 0.677248 0.563812 0.436188 0.981282 0.0187182 0.438846 0.561154
8
1.0 0.0 0.0 1.0 1.0 0.0 0.0 1.0
8
0.122523 0.877477 0.504341 0.495659 0.829764 0.170236 0.386697 0.613303
8
0.780463 0.219537 0.279353 0.720647 0.77892 0.22108 0.167652 0.832348
8
1.0 0.0 1.0 0.0 1.0 0.0 0.0 1.0
8
0.112948 0.887052 0.596462 0.403538 0.512785 0.487215 0.330733 0.669267
8
0.111971 0.888029 0.653485 0.346515 0.513552 0.486448 0.0932529 0.906747
8
0.0 1.0 1.0 0.0 0.0 1.0 0.0 1.0
8
0.294129 0.705871 0.45917 0.54083 0.436077 0.563923 0.123893 0.876107
8
0.0427904 0.95721 0.904356 0.095644 0.12522 0.87478 0.82171 0.17829
4
1.0 0.0 0.0 1.0
8
0.379501 0.620499 0.611605 0.388395 0.0758245 0.924176 0.207969 0.792031
8
0.672287 0.327713 0.720754 0.279246 0.0552862 0.944714 0.622026 0.377974
8
0.708772 0.291228 0.135578 0.864422 0.925978 0.0740223 0.801103 0.198897
8
0.0188807 0.981119 0.195275 0.804725 0.0733428 0.926657 0.950617 0.0493831
8
1.0 0.0 0.0 1.0 0.0 1.0 1.0 0.0
8
0.0 1.0 0.0 1.0 0.0 1.0 1.0 0.0
8
0.857085 0.142915 0.969161 0.0308388 0.401842 0.598158 0.93291 0.0670904
8
0.0 1.0 1.0 0.0 0.0 1.0 0.0 1.0
8
0.0 1.0 1.0 0.0 1.0 0.0 0.0 1.0
8
0.0994964 0.900504 0.675467 0.324533 0.886831 0.113169 0.172839 0.827161
8
0.376235 0.623765 0.705352 0.294648 0.0127778 0.987222 0.989532 0.0104684
8
1.0 0.0 1.0 0.0 1.0 0.0 0.0 1.0
8
0.0 1.0 1.0 0.0 0.0 1.0 0.0 1.0
8
0.0 1.0 0.0 1.0 1.0 0.0 1.0 0.0
8
1.0 0.0 1.0 0.0 0.0 1.0 1.0 0.0
4
0.669495 0.330505 0.778167 0.221833
8
0.0 1.0 0.0 1.0 1.0 0.0 1.0 0.0
8
0.842543 0.157457 0.922092 0.0779077 0.74009 0.25991 0.284805 0.715195
8
1.0 0.0 1.0 0.0 1.0 0.0 0.0 1.0
8
0.592128 0.407872 0.484401 0.515599 0.0122567 0.987743 0.835264 0.164736
8
1.0 0.0 0.0 1.0 0.0 1.0 0.0 1.0
8
1.0 0.0 0.0 1.0 0.0 1.0 1.0 0.0
8
0.681453 0.318547 0.82462 0.17538 0.409573 0.590427 0.614014 0.385986
8
1.0 0.0 1.0 0.0 0.0 1.0 0.0 1.0
8
0.548491 0.451509 0.515183 0.484817 0.491504 0.508496 0.253482 0.746518
8
0.0 1.0 1.0 0.0 0.0 1.0 1.0 0.0
8
1.0 0.0 0.0 1.0 0.0 1.0 0.0 1.0
8
1.0 0.0 0.0 1.0 1.0 0.0 1.0 0.0
8
0.867996 0.132004 0.367605 0.632395 0.108597 0.891403 0.482009 0.517991
8
0.360713 0.639287 0.0181155 0.981884 0.0696526 0.930347 0.897634 0.102366
8
0.618144 0.381856 0.412817 0.587183 0.475003 0.524997 0.871626 0.128374
4
0.0 1.0 1.0 0.0
8
0.513049 0.486951 0.47753 0.52247 0.7376 0.2624 0.670198 0.329802
8
0.0 1.0 0.0 1.0 0.0 1.0 1.0 0.0
8
0.235017 0.764983 0.59134 0.40866 0.456478 0.543522 0.934042 0.0659583
8
1.0 0.0 1.0 0.0 0.0 1.0 0.0 1.0
8
1.0 0.0 0.0 1.0 1.0 0.0 1.0 0.0
8
0.0 1.0 1.0 0.0 0.0 1.0 1.0 0.0
8
0.841599 0.158401 0.683656 0.316344 0.454126 0.545874 0.579199 0.420801
8
0.0 1.0 0.0 1.0 1.0 0.0 0.0 1.0
8
1.0 0.0 0.0 1.0 1.0 0.0 0.0 1.0
8
1.0 0.0 0.0 1.0 1.0 0.0 1.0 0.0
8
0.0 1.0 0.0 1.0 0.0 1.0 1.0 0.0
8
1.0 0.0 0.0 1.0 1.0 0.0 1.0 0.0
8
0.64117 0.35883 0.426735 0.573265 0.0705049 0.929495 0.220369 0.779631
8
0.89734 0.10266 0.142951 0.857049 0.378566 0.621434 0.839974 0.160026
8
0.0 1.0 1.0 0.0 1.0 0.0 0.0 1.0
4
0.0 1.0 1.0 0.0
8
0.28365 0.71635 0.0865071 0.913493 0.114718 0.885282 0.841334 0.158666
8
1.0 0.0 1.0 0.0 1.0 0.0 0.0 1.0
8
0.0 1.0 1.0 0.0 0.0 1.0 1.0 0.0
8
0.0 1.0 0.0 1.0 0.0 1.0 1.0 0.0
8
0.69328 0.30672 0.601446 0.398554 0.65117 0.34883 0.163611 0.836389
8
1.0 0.0 0.0 1.0 0.0 1.0 0.0 1.0
8
0.0 1.0 0.0 1.0 0.0 1.0 1.0 0.0
8
0.771644 0.228356 0.435945 0.564055 0.623102 0.376898 0.358834 0.641166
8
1.0 0.0 0.0 1.0 1.0 0.0 1.0 0.0
8
0.0 1.0 1.0 0.0 0.0 1.0 0.0 1.0
8
0.154213 0.845787 0.587522 0.412478 0.177751 0.822249 0.805383 0.194617
8
0.669235 0.330765 0.474179 0.525821 0.303795 0.696205 0.0187057 0.981294
8
1.0 0.0 1.0 0.0 0.0 1.0 1.0 0.0
8
1.0 0.0 1.0 0.0 0.0 1.0 1.0 0.0
8
0.0 1.0 0.0 1.0 1.0 0.0 1.0 0.0
4
0.17528 0.82472 0.251377 0.748623
8
1.0 0.0 0.0 1.0 0.0 1.0 0.0 1.0
8
0.477892 0.522108 0.484274 0.515726 0.483686 0.516314 0.952071 0.0479293
8
0.502392 0.497608 0.224363 0.775637 0.411631 0.588369 0.520588 0.479412
8
0.441468 0.558532 0.652991 0.347009 0.855574 0.144426 0.242948 0.757052
8
0.0 1.0 1.0 0.0 0.0 1.0 0.0 1.0
8
1.0 0.0 1.0 0.0 0.0 1.0 1.0 0.0
8
1.0 0.0 0.0 1.0 0.0 1.0 0.0 1.0
8
0.636727 0.363273 0.253869 0.746131 0.945429 0.0545706 0.424796 0.575204
8
0.169793 0.830207 0.836427 0.163573 0.276849 0.723151 0.748212 0.251788
8
1.0 0.0 0.0 1.0 0.0 1.0 1.0 0.0
8
0.0 1.0 1.0 0.0 0.0 1.0 1.0 0.0
8
1.0 0.0 1.0 0.0 1.0 0.0 0.0 1.0
8
0.0 1.0 1.0 0.0 1.0 0.0 0.0 1.0
8
1.0 0.0 0.0 1.0 0.0 1.0 0.0 1.0
8
1.0 0.0 1.0 0.0 0.0 1.0 0.0 1.0
4
0.309649 0.690351 0.431683 0.568317
8
1.0 0.0 0.0 1.0 0.0 1.0 0.0 1.0
8
0.0 1.0 1.0 0.0 1.0 0.0 1.0 0.0
8
0.14692 0.85308 0.467336 0.532664 0.680634 0.319366 0.591601 0.408399
8
1.0 0.0 0.0 1.0 0.0 1.0 1.0 0.0
8
0.0 1.0 1.0 0.0 1.0 0.0 0.0 1.0
8
0.0020365 0.997964 0.147722 0.852278 0.121701 0.878299 0.43372 0.56628
8
1.0 0.0 0.0 1.0 1.0 0.0 1.0 0.0
8
0.429692 0.570308 0.53487 0.46513 0.00271861 0.997281 0.0876614 0.912339
8
0.702001 0.297999 0.234581 0.765419 0.228437 0.771563 0.382635 0.617365
8
0.452346 0.547654 0.197073 0.802927 0.632648 0.367352 0.426187 0.573813
8
0.907846 0.0921535 0.0953897 0.90461 0.56234 0.43766 0.40804 0.59196
8
0.374392 0.625608 0.410076 0.589924 0.777467 0.222533 0.496092 0.503908
8
0.142341 0.857659 0.448285 0.551715 0.860378 0.139622 0.083982 0.916018
8
1.0 0.0 1.0 0.0 0.0 1.0 0.0 1.0
8
0.451044 0.548956 0.430575 0.569425 0.835916 0.164084 0.67948 0.32052
4
0.662098 0.337902 0.131827 0.868173
8
0.0 1.0 0.0 1.0 1.0 0.0 0.0 1.0
8
0.0 1.0 0.0 1.0 0.0 1.0 1.0 0.0
8
0.0 1.0 0.0 1.0 0.0 1.0 1.0 0.0
8
0.28694 0.71306 0.828507 0.171493 0.450738 0.549262 0.800613 0.199387
8
0.179312 0.820688 0.401949 0.598051 0.969494 0.0305061 0.609886 0.390114
8
1.0 0.0 1.0 0.0 1.0 0.0 0.0 1.0
8
1.0 0.0 0.0 1.0 1.0 0.0 0.0 1.0
8
0.58037 0.41963 0.00793462 0.992065 0.275369 0.724631 0.309427 0.690573
8
0.0 1.0 1.0 0.0 0.0 1.0 0.0 1.0
8
1.0 0.0 1.0 0.0 1.0 0.0 0.0 1.0
8
0.554969 0.445031 0.248081 0.751919 0.0284452 0.971555 0.524463 0.475537
8
0.26631 0.73369 0.173437 0.826563 0.281063 0.718937 0.166274 0.833726
8
0.714442 0.285558 0.360984 0.639016 0.293054 0.706946 0.940146 0.0598543
8
0.285273 0.714727 0.520516 0.479484 0.76622 0.23378 0.560642 0.439358
8
0.794864 0.205136 0.896627 0.103373 0.36452 0.63548 0.688012 0.311988